
Gurobi 6.0.4 (win64) logging started 06/14/15 16:31:13

Read LP format model from file E:\Eigene Dateien\Downloads\Michi shit\VRPTWMS-master\VRPTWMS\instances\mip\fuel\N6-C_DV100-C_SV25_F5_9_No_1.lp
Reading time = 0.00 seconds
(null): 253 rows, 134 columns, 987 nonzeros
Optimize a model with 253 rows, 134 columns and 987 nonzeros
Model has 252 quadratic constraints
WARNING: Only barrier available for SOCP models
Coefficient statistics:
  Matrix range    [1e+00, 1e+02]
  Objective range [5e+00, 1e+03]
  Bounds range    [1e+00, 1e+02]
  RHS range       [1e+00, 1e+02]
Presolve removed 22 rows and 13 columns
Presolve time: 0.02s
Presolved: 687 rows, 361 columns, 3202 nonzeros
Variable types: 210 continuous, 151 integer (118 binary)
Found heuristic solution: objective 7316.6800000
Optimize a model with 687 rows, 361 columns and 3202 nonzeros
Coefficient statistics:
  Matrix range    [1e+00, 1e+02]
  Objective range [5e+00, 1e+03]
  Bounds range    [1e+00, 1e+02]
  RHS range       [1e+00, 1e+02]
Presolve removed 65 rows and 48 columns
Presolved: 622 rows, 314 columns, 2953 nonzeros


Root relaxation: objective 1.704589e+02, 50 iterations, 0.00 seconds

    Nodes    |    Current Node    |     Objective Bounds      |     Work
 Expl Unexpl |  Obj  Depth IntInf | Incumbent    BestBd   Gap | It/Node Time

     0     0  170.45892    0   19 7316.68000  170.45892  97.7%     -    0s
H    0     0                    6316.1800000  170.45892  97.3%     -    0s
     0     0  378.45143    0   39 6316.18000  378.45143  94.0%     -    0s
H    0     0                    5288.1200000  378.45143  92.8%     -    0s
     0     0 1143.58116    0   19 5288.12000 1143.58116  78.4%     -    0s
H    0     0                    4261.8200000 1143.58116  73.2%     -    0s
     0     0 1143.84386    0   22 4261.82000 1143.84386  73.2%     -    0s
H    0     0                    3247.4500000 1143.84386  64.8%     -    0s
     0     0 1148.35500    0   17 3247.45000 1148.35500  64.6%     -    0s
     0     0 1148.35500    0   19 3247.45000 1148.35500  64.6%     -    0s
     0     0 1148.35500    0   16 3247.45000 1148.35500  64.6%     -    0s
     0     0 1148.35500    0   15 3247.45000 1148.35500  64.6%     -    0s
     0     0 1148.35500    0   18 3247.45000 1148.35500  64.6%     -    0s
     0     0 1148.35500    0   16 3247.45000 1148.35500  64.6%     -    0s
     0     0 1148.35500    0   18 3247.45000 1148.35500  64.6%     -    0s
     0     0 1148.35500    0   16 3247.45000 1148.35500  64.6%     -    0s
     0     2 1148.35500    0   14 3247.45000 1148.35500  64.6%     -    0s
H 1192   308                    3245.8100000 1800.16446  44.5%  21.2    0s

Cutting planes:
  Learned: 5
  Gomory: 2
  Cover: 214
  Implied bound: 85
  Clique: 9
  MIR: 45
  GUB cover: 3

Explored 4431 nodes (85529 simplex iterations) in 0.82 seconds
Thread count was 4 (of 4 available processors)

Optimal solution found (tolerance 1.00e-04)
Best objective 3.245810000000e+03, best bound 3.245810000000e+03, gap 0.0%
k_c1	5.0
k_c2	100.0
k_c3	100.0
k_c4	95.0
k_c5	97.0
k_c6	7.000000000000002
k_dN	-0.0
o_1	-0.0
o_2	-0.0
o_3	0.0
o_4	0.0
o_5	1.0
o_6	-0.0
p_1	0.0
p_2	0.0
p_3	0.0
p_4	0.0
p_5	1.0
p_6	0.0
phi_c1	2.0
phi_c2	4.0
phi_c3	3.0
phi_c4	2.0
phi_c5	1.0
phi_c6	1.0
phi_dN	-0.0
pi_c1	-0.0
pi_c2	-0.0
pi_c3	-0.0
pi_c4	-0.0
pi_c5	4.000000000000011
pi_c6	-0.0
pi_dN	-0.0
tauD_c1	91.0
tauD_c2	40.0
tauD_c3	50.0
tauD_c4	75.0
tauD_c5	62.0
tauD_c6	87.0000000000001
tauD_d0	-0.0
tauD_dN	100.0
tauS_c1	87.0
tauS_c2	89.0
tauS_c3	85.0
tauS_c4	88.0
tauS_c5	62.0
tauS_c6	89.0
tauS_d0	-0.0
tauS_dN	81.0
x_c1_dN	1.0
x_c2_c5	1.0
x_c3_c4	1.0
x_c4_c6	1.0
x_c5_c1	1.0
x_c6_dN	1.0
x_d0_c2	1.0
x_d0_c3	1.0
z_c5_dN	1.0
z_d0_c5	1.0
